parte-3/parte-3.sol
Problem:    parte
Rows:       143
Columns:    135 (135 integer, 120 binary)
Non-zeros:  426
Status:     INTEGER OPTIMAL
Objective:  Beneficio_Neto = 21690 (MAXimum)

   No.   Row name        Activity     Lower bound   Upper bound
------ ------------    ------------- ------------- -------------
     1 Beneficio_Neto
                               21690                             
     2 Max_Asientos[AV1]
                                  90                          90 
     3 Max_Asientos[AV2]
                                 120                         120 
     4 Max_Asientos[AV3]
                                 200                         200 
     5 Max_Asientos[AV4]
                                 150                         150 
     6 Max_Asientos[AV5]
                                 190                         190 
     7 Max_Peso[AV1]
                                1699                        1700 
     8 Max_Peso[AV2]
                                2698                        2700 
     9 Max_Peso[AV3]
                                1300                        1300 
    10 Max_Peso[AV4]
                                1700                        1700 
    11 Max_Peso[AV5]
                                1993                        2000 
    12 Min_Leisure[AV1]
                                  58            20               
    13 Min_Leisure[AV2]
                                  31            20               
    14 Min_Leisure[AV3]
                                  23            20               
    15 Min_Leisure[AV4]
                                  20            20               
    16 Min_Leisure[AV5]
                                  21            20               
    17 Min_Business[AV1]
                                  13            10               
    18 Min_Business[AV2]
                                  51            10               
    19 Min_Business[AV3]
                                  17            10               
    20 Min_Business[AV4]
                                  30            10               
    21 Min_Business[AV5]
                                  36            10               
    22 Min_Estandar                0            -0               
    23 Asignacion_Slot[AV1]
                                   1             1             = 
    24 Asignacion_Slot[AV2]
                                   1             1             = 
    25 Asignacion_Slot[AV3]
                                   1             1             = 
    26 Asignacion_Slot[AV4]
                                   1             1             = 
    27 Asignacion_Slot[AV5]
                                   1             1             = 
    28 Slot_Unico[1,P1]
                                   0                           1 
    29 Slot_Unico[1,P2]
                                   0                           1 
    30 Slot_Unico[1,P3]
                                   1                           1 
    31 Slot_Unico[1,P4]
                                   0                           1 
    32 Slot_Unico[2,P1]
                                   0                           1 
    33 Slot_Unico[2,P2]
                                   0                           1 
    34 Slot_Unico[2,P3]
                                   1                           1 
    35 Slot_Unico[2,P4]
                                   0                           1 
    36 Slot_Unico[3,P1]
                                   0                           1 
    37 Slot_Unico[3,P2]
                                   0                           1 
    38 Slot_Unico[3,P3]
                                   0                           1 
    39 Slot_Unico[3,P4]
                                   0                           1 
    40 Slot_Unico[4,P1]
                                   0                           1 
    41 Slot_Unico[4,P2]
                                   1                           1 
    42 Slot_Unico[4,P3]
                                   0                           1 
    43 Slot_Unico[4,P4]
                                   0                           1 
    44 Slot_Unico[5,P1]
                                   1                           1 
    45 Slot_Unico[5,P2]
                                   0                           1 
    46 Slot_Unico[5,P3]
                                   0                           1 
    47 Slot_Unico[5,P4]
                                   0                           1 
    48 Slot_Unico[6,P1]
                                   0                           1 
    49 Slot_Unico[6,P2]
                                   0                           1 
    50 Slot_Unico[6,P3]
                                   0                           1 
    51 Slot_Unico[6,P4]
                                   1                           1 
    52 Disponibilidad_Slot[AV1,2,P1]
                                   0                          -0 
    53 Disponibilidad_Slot[AV1,2,P2]
                                   0                          -0 
    54 Disponibilidad_Slot[AV1,2,P3]
                                   1                           1 
    55 Disponibilidad_Slot[AV1,2,P4]
                                   0                          -0 
    56 Disponibilidad_Slot[AV1,3,P1]
                                   0                          -0 
    57 Disponibilidad_Slot[AV1,3,P2]
                                   0                           1 
    58 Disponibilidad_Slot[AV1,3,P3]
                                   0                           1 
    59 Disponibilidad_Slot[AV1,3,P4]
                                   0                          -0 
    60 Disponibilidad_Slot[AV1,4,P1]
                                   0                          -0 
    61 Disponibilidad_Slot[AV1,4,P2]
                                   0                           1 
    62 Disponibilidad_Slot[AV1,4,P3]
                                   0                          -0 
    63 Disponibilidad_Slot[AV1,4,P4]
                                   0                          -0 
    64 Disponibilidad_Slot[AV1,5,P1]
                                   0                           1 
    65 Disponibilidad_Slot[AV1,5,P2]
                                   0                          -0 
    66 Disponibilidad_Slot[AV1,5,P3]
                                   0                          -0 
    67 Disponibilidad_Slot[AV1,5,P4]
                                   0                           1 
    68 Disponibilidad_Slot[AV1,6,P1]
                                   0                           1 
    69 Disponibilidad_Slot[AV1,6,P2]
                                   0                          -0 
    70 Disponibilidad_Slot[AV1,6,P3]
                                   0                           1 
    71 Disponibilidad_Slot[AV1,6,P4]
                                   0                           1 
    72 Disponibilidad_Slot[AV2,1,P1]
                                   0                          -0 
    73 Disponibilidad_Slot[AV2,1,P2]
                                   0                          -0 
    74 Disponibilidad_Slot[AV2,1,P3]
                                   1                           1 
    75 Disponibilidad_Slot[AV2,1,P4]
                                   0                           1 
    76 Disponibilidad_Slot[AV2,2,P1]
                                   0                          -0 
    77 Disponibilidad_Slot[AV2,2,P2]
                                   0                          -0 
    78 Disponibilidad_Slot[AV2,2,P3]
                                   0                           1 
    79 Disponibilidad_Slot[AV2,2,P4]
                                   0                          -0 
    80 Disponibilidad_Slot[AV2,3,P1]
                                   0                          -0 
    81 Disponibilidad_Slot[AV2,3,P2]
                                   0                           1 
    82 Disponibilidad_Slot[AV2,3,P3]
                                   0                           1 
    83 Disponibilidad_Slot[AV2,3,P4]
                                   0                          -0 
    84 Disponibilidad_Slot[AV3,4,P1]
                                   0                          -0 
    85 Disponibilidad_Slot[AV3,4,P2]
                                   1                           1 
    86 Disponibilidad_Slot[AV3,4,P3]
                                   0                          -0 
    87 Disponibilidad_Slot[AV3,4,P4]
                                   0                          -0 
    88 Disponibilidad_Slot[AV3,5,P1]
                                   0                           1 
    89 Disponibilidad_Slot[AV3,5,P2]
                                   0                          -0 
    90 Disponibilidad_Slot[AV3,5,P3]
                                   0                          -0 
    91 Disponibilidad_Slot[AV3,5,P4]
                                   0                           1 
    92 Disponibilidad_Slot[AV4,5,P1]
                                   1                           1 
    93 Disponibilidad_Slot[AV4,5,P2]
                                   0                          -0 
    94 Disponibilidad_Slot[AV4,5,P3]
                                   0                          -0 
    95 Disponibilidad_Slot[AV4,5,P4]
                                   0                           1 
    96 Disponibilidad_Slot[AV4,6,P1]
                                   0                           1 
    97 Disponibilidad_Slot[AV4,6,P2]
                                   0                          -0 
    98 Disponibilidad_Slot[AV4,6,P3]
                                   0                           1 
    99 Disponibilidad_Slot[AV4,6,P4]
                                   0                           1 
   100 Disponibilidad_Slot[AV5,6,P1]
                                   0                           1 
   101 Disponibilidad_Slot[AV5,6,P2]
                                   0                          -0 
   102 Disponibilidad_Slot[AV5,6,P3]
                                   0                           1 
   103 Disponibilidad_Slot[AV5,6,P4]
                                   1                           1 
   104 No_Aterr_Consec[AV1,2,P1]
                                   0                           1 
   105 No_Aterr_Consec[AV1,2,P2]
                                   0                           1 
   106 No_Aterr_Consec[AV1,2,P3]
                                   1                           1 
   107 No_Aterr_Consec[AV1,2,P4]
                                   0                           1 
   108 No_Aterr_Consec[AV1,3,P1]
                                   0                           1 
   109 No_Aterr_Consec[AV1,3,P2]
                                   0                           1 
   110 No_Aterr_Consec[AV1,3,P3]
                                   0                           1 
   111 No_Aterr_Consec[AV1,3,P4]
                                   0                           1 
   112 No_Aterr_Consec[AV1,4,P1]
                                   0                           1 
   113 No_Aterr_Consec[AV1,4,P2]
                                   0                           1 
   114 No_Aterr_Consec[AV1,4,P3]
                                   0                           1 
   115 No_Aterr_Consec[AV1,4,P4]
                                   0                           1 
   116 No_Aterr_Consec[AV1,5,P1]
                                   0                           1 
   117 No_Aterr_Consec[AV1,5,P2]
                                   0                           1 
   118 No_Aterr_Consec[AV1,5,P3]
                                   0                           1 
   119 No_Aterr_Consec[AV1,5,P4]
                                   0                           1 
   120 No_Aterr_Consec[AV2,1,P1]
                                   0                           1 
   121 No_Aterr_Consec[AV2,1,P2]
                                   0                           1 
   122 No_Aterr_Consec[AV2,1,P3]
                                   1                           1 
   123 No_Aterr_Consec[AV2,1,P4]
                                   0                           1 
   124 No_Aterr_Consec[AV2,2,P1]
                                   0                           1 
   125 No_Aterr_Consec[AV2,2,P2]
                                   0                           1 
   126 No_Aterr_Consec[AV2,2,P3]
                                   0                           1 
   127 No_Aterr_Consec[AV2,2,P4]
                                   0                           1 
   128 No_Aterr_Consec[AV2,3,P1]
                                   0                           1 
   129 No_Aterr_Consec[AV2,3,P2]
                                   0                           1 
   130 No_Aterr_Consec[AV2,3,P3]
                                   0                           1 
   131 No_Aterr_Consec[AV2,3,P4]
                                   0                           1 
   132 No_Aterr_Consec[AV3,4,P1]
                                   0                           1 
   133 No_Aterr_Consec[AV3,4,P2]
                                   1                           1 
   134 No_Aterr_Consec[AV3,4,P3]
                                   0                           1 
   135 No_Aterr_Consec[AV3,4,P4]
                                   0                           1 
   136 No_Aterr_Consec[AV3,5,P1]
                                   0                           1 
   137 No_Aterr_Consec[AV3,5,P2]
                                   0                           1 
   138 No_Aterr_Consec[AV3,5,P3]
                                   0                           1 
   139 No_Aterr_Consec[AV3,5,P4]
                                   0                           1 
   140 No_Aterr_Consec[AV4,5,P1]
                                   1                           1 
   141 No_Aterr_Consec[AV4,5,P2]
                                   0                           1 
   142 No_Aterr_Consec[AV4,5,P3]
                                   0                           1 
   143 No_Aterr_Consec[AV4,5,P4]
                                   0                           1 

   No. Column name       Activity     Lower bound   Upper bound
------ ------------    ------------- ------------- -------------
     1 x[AV1,estandar]
                    *             19             0               
     2 x[AV1,leisure]
                    *             58             0               
     3 x[AV1,business]
                    *             13             0               
     4 x[AV2,estandar]
                    *             38             0               
     5 x[AV2,leisure]
                    *             31             0               
     6 x[AV2,business]
                    *             51             0               
     7 x[AV3,estandar]
                    *            160             0               
     8 x[AV3,leisure]
                    *             23             0               
     9 x[AV3,business]
                    *             17             0               
    10 x[AV4,estandar]
                    *            100             0               
    11 x[AV4,leisure]
                    *             20             0               
    12 x[AV4,business]
                    *             30             0               
    13 x[AV5,estandar]
                    *            133             0               
    14 x[AV5,leisure]
                    *             21             0               
    15 x[AV5,business]
                    *             36             0               
    16 y[AV1,2,P1]  *              0             0             1 
    17 y[AV1,2,P2]  *              0             0             1 
    18 y[AV1,2,P3]  *              1             0             1 
    19 y[AV1,2,P4]  *              0             0             1 
    20 y[AV1,3,P1]  *              0             0             1 
    21 y[AV1,3,P2]  *              0             0             1 
    22 y[AV1,3,P3]  *              0             0             1 
    23 y[AV1,3,P4]  *              0             0             1 
    24 y[AV1,4,P1]  *              0             0             1 
    25 y[AV1,4,P2]  *              0             0             1 
    26 y[AV1,4,P3]  *              0             0             1 
    27 y[AV1,4,P4]  *              0             0             1 
    28 y[AV1,5,P1]  *              0             0             1 
    29 y[AV1,5,P2]  *              0             0             1 
    30 y[AV1,5,P3]  *              0             0             1 
    31 y[AV1,5,P4]  *              0             0             1 
    32 y[AV1,6,P1]  *              0             0             1 
    33 y[AV1,6,P2]  *              0             0             1 
    34 y[AV1,6,P3]  *              0             0             1 
    35 y[AV1,6,P4]  *              0             0             1 
    36 y[AV2,1,P1]  *              0             0             1 
    37 y[AV2,1,P2]  *              0             0             1 
    38 y[AV2,1,P3]  *              1             0             1 
    39 y[AV2,1,P4]  *              0             0             1 
    40 y[AV2,2,P1]  *              0             0             1 
    41 y[AV2,2,P2]  *              0             0             1 
    42 y[AV2,2,P3]  *              0             0             1 
    43 y[AV2,2,P4]  *              0             0             1 
    44 y[AV2,3,P1]  *              0             0             1 
    45 y[AV2,3,P2]  *              0             0             1 
    46 y[AV2,3,P3]  *              0             0             1 
    47 y[AV2,3,P4]  *              0             0             1 
    48 y[AV3,4,P1]  *              0             0             1 
    49 y[AV3,4,P2]  *              1             0             1 
    50 y[AV3,4,P3]  *              0             0             1 
    51 y[AV3,4,P4]  *              0             0             1 
    52 y[AV3,5,P1]  *              0             0             1 
    53 y[AV3,5,P2]  *              0             0             1 
    54 y[AV3,5,P3]  *              0             0             1 
    55 y[AV3,5,P4]  *              0             0             1 
    56 y[AV4,5,P1]  *              1             0             1 
    57 y[AV4,5,P2]  *              0             0             1 
    58 y[AV4,5,P3]  *              0             0             1 
    59 y[AV4,5,P4]  *              0             0             1 
    60 y[AV4,6,P1]  *              0             0             1 
    61 y[AV4,6,P2]  *              0             0             1 
    62 y[AV4,6,P3]  *              0             0             1 
    63 y[AV4,6,P4]  *              0             0             1 
    64 y[AV5,6,P1]  *              0             0             1 
    65 y[AV5,6,P2]  *              0             0             1 
    66 y[AV5,6,P3]  *              0             0             1 
    67 y[AV5,6,P4]  *              1             0             1 
    68 y[AV1,1,P1]  *              0             0             1 
    69 y[AV3,1,P1]  *              0             0             1 
    70 y[AV4,1,P1]  *              0             0             1 
    71 y[AV5,1,P1]  *              0             0             1 
    72 y[AV1,1,P2]  *              0             0             1 
    73 y[AV3,1,P2]  *              0             0             1 
    74 y[AV4,1,P2]  *              0             0             1 
    75 y[AV5,1,P2]  *              0             0             1 
    76 y[AV1,1,P3]  *              0             0             1 
    77 y[AV3,1,P3]  *              0             0             1 
    78 y[AV4,1,P3]  *              0             0             1 
    79 y[AV5,1,P3]  *              0             0             1 
    80 y[AV1,1,P4]  *              0             0             1 
    81 y[AV3,1,P4]  *              0             0             1 
    82 y[AV4,1,P4]  *              0             0             1 
    83 y[AV5,1,P4]  *              0             0             1 
    84 y[AV3,2,P1]  *              0             0             1 
    85 y[AV4,2,P1]  *              0             0             1 
    86 y[AV5,2,P1]  *              0             0             1 
    87 y[AV3,2,P2]  *              0             0             1 
    88 y[AV4,2,P2]  *              0             0             1 
    89 y[AV5,2,P2]  *              0             0             1 
    90 y[AV3,2,P3]  *              0             0             1 
    91 y[AV4,2,P3]  *              0             0             1 
    92 y[AV5,2,P3]  *              0             0             1 
    93 y[AV3,2,P4]  *              0             0             1 
    94 y[AV4,2,P4]  *              0             0             1 
    95 y[AV5,2,P4]  *              0             0             1 
    96 y[AV3,3,P1]  *              0             0             1 
    97 y[AV4,3,P1]  *              0             0             1 
    98 y[AV5,3,P1]  *              0             0             1 
    99 y[AV3,3,P2]  *              0             0             1 
   100 y[AV4,3,P2]  *              0             0             1 
   101 y[AV5,3,P2]  *              0             0             1 
   102 y[AV3,3,P3]  *              0             0             1 
   103 y[AV4,3,P3]  *              0             0             1 
   104 y[AV5,3,P3]  *              0             0             1 
   105 y[AV3,3,P4]  *              0             0             1 
   106 y[AV4,3,P4]  *              0             0             1 
   107 y[AV5,3,P4]  *              0             0             1 
   108 y[AV2,4,P1]  *              0             0             1 
   109 y[AV4,4,P1]  *              0             0             1 
   110 y[AV5,4,P1]  *              0             0             1 
   111 y[AV2,4,P2]  *              0             0             1 
   112 y[AV4,4,P2]  *              0             0             1 
   113 y[AV5,4,P2]  *              0             0             1 
   114 y[AV2,4,P3]  *              0             0             1 
   115 y[AV4,4,P3]  *              0             0             1 
   116 y[AV5,4,P3]  *              0             0             1 
   117 y[AV2,4,P4]  *              0             0             1 
   118 y[AV4,4,P4]  *              0             0             1 
   119 y[AV5,4,P4]  *              0             0             1 
   120 y[AV2,5,P1]  *              0             0             1 
   121 y[AV5,5,P1]  *              0             0             1 
   122 y[AV2,5,P2]  *              0             0             1 
   123 y[AV5,5,P2]  *              0             0             1 
   124 y[AV2,5,P3]  *              0             0             1 
   125 y[AV5,5,P3]  *              0             0             1 
   126 y[AV2,5,P4]  *              0             0             1 
   127 y[AV5,5,P4]  *              0             0             1 
   128 y[AV2,6,P1]  *              0             0             1 
   129 y[AV3,6,P1]  *              0             0             1 
   130 y[AV2,6,P2]  *              0             0             1 
   131 y[AV3,6,P2]  *              0             0             1 
   132 y[AV2,6,P3]  *              0             0             1 
   133 y[AV3,6,P3]  *              0             0             1 
   134 y[AV2,6,P4]  *              0             0             1 
   135 y[AV3,6,P4]  *              0             0             1 

Integer feasibility conditions:

KKT.PE: max.abs.err = 0.00e+00 on row 0
        max.rel.err = 0.00e+00 on row 0
        High quality

KKT.PB: max.abs.err = 0.00e+00 on row 0
        max.rel.err = 0.00e+00 on row 0
        High quality

End of output
